RAW/D/fspd-mid/SCA8-5.vrpspd_seed-6.out
1027.0809	21.112	100.053
