RAW/D/fspd-mid/SCA8-5.vrpspd_seed-6.sol
Route #1: 35 50 29 49 37
Route #2: 24 28 33 15 4
Route #3: 10 6 42 20
Route #4: 1 14 17 11 30 31 34 12
Route #5: 7 43 32 48
Route #6: 23 19 47 26 9 38 13 22
Route #7: 41 25 45 5 16
Route #8: 2 21 18 36 46
Route #9: 27 3 8 39 40 44
Cost 10270809.000000